Heimadaemin/Heimadaemi_2/daemi2.txt
Kaupa skal:
60.00 tonn frá A
0.00 tonn frá B
0.00 tonn frá C
0.00 tonn frá D
0.00 tonn frá E
45.50 tonn frá F
61.50 tonn frá G
